CLT06
Position Depot: Center
Horizon for Depot: Large
Position of customers: Cluster
Distribution of the demand: Small
Width of time windows: Tight
Distribution of the service: Small

VEHICLE 
NUMBER 	 CAPACITY 
 6 	 	 60 
 
CUSTOMER
CUST NO. 	 XCOORD.  	 YCOORD. 	 DEMAND 	 READY TIME 	 DUE DATE 	 SERVICE TIME 
 0 	 	 500 	 	 500 	 	 0 	 	 0 	 	 2815 	 	 0 
  1 	 	 570 	 	 501 	 	 9 	 	 2110 	 	 2162 	 	 58 
  2 	 	 723 	 	 416 	 	 10 	 	 2700 	 	 2761 	 	 56 
  3 	 	 379 	 	 992 	 	 8 	 	 1099 	 	 1167 	 	 100 
  4 	 	 697 	 	 457 	 	 8 	 	 1513 	 	 1696 	 	 62 
  5 	 	 700 	 	 427 	 	 8 	 	 1950 	 	 2066 	 	 87 
  6 	 	 718 	 	 379 	 	 7 	 	 2352 	 	 2514 	 	 78 
  7 	 	 701 	 	 374 	 	 9 	 	 300 	 	 429 	 	 69 
  8 	 	 653 	 	 475 	 	 8 	 	 1028 	 	 1094 	 	 92 
  9 	 	 722 	 	 418 	 	 6 	 	 2155 	 	 2256 	 	 83 
  10 	 	 881 	 	 391 	 	 8 	 	 1386 	 	 1576 	 	 70 
  11 	 	 653 	 	 440 	 	 7 	 	 2548 	 	 2601 	 	 56 
  12 	 	 732 	 	 412 	 	 9 	 	 312 	 	 367 	 	 91 
  13 	 	 448 	 	 938 	 	 6 	 	 1587 	 	 1644 	 	 96 
  14 	 	 473 	 	 503 	 	 6 	 	 2123 	 	 2288 	 	 99 
  15 	 	 580 	 	 427 	 	 9 	 	 2640 	 	 2815 	 	 59 
  16 	 	 878 	 	 436 	 	 8 	 	 2565 	 	 2666 	 	 62 
  17 	 	 719 	 	 203 	 	 8 	 	 2369 	 	 2509 	 	 75 
  18 	 	 539 	 	 451 	 	 10 	 	 1548 	 	 1633 	 	 79 
  19 	 	 325 	 	 1000 	 	 6 	 	 497 	 	 582 	 	 78 
  20 	 	 524 	 	 553 	 	 5 	 	 162 	 	 269 	 	 70 
  21 	 	 700 	 	 436 	 	 6 	 	 1149 	 	 1322 	 	 90 
  22 	 	 695 	 	 441 	 	 7 	 	 2194 	 	 2257 	 	 70 
  23 	 	 710 	 	 681 	 	 5 	 	 120 	 	 304 	 	 59 
  24 	 	 398 	 	 825 	 	 9 	 	 1247 	 	 1361 	 	 93 
  25 	 	 565 	 	 517 	 	 7 	 	 620 	 	 696 	 	 79 
  26 	 	 560 	 	 500 	 	 7 	 	 2307 	 	 2418 	 	 61 
  27 	 	 602 	 	 495 	 	 8 	 	 317 	 	 367 	 	 60 
  28 	 	 630 	 	 534 	 	 10 	 	 1181 	 	 1333 	 	 96 
  29 	 	 372 	 	 986 	 	 7 	 	 2570 	 	 2658 	 	 74 
  30 	 	 512 	 	 483 	 	 5 	 	 1834 	 	 1966 	 	 86 
  31 	 	 808 	 	 398 	 	 7 	 	 1259 	 	 1321 	 	 66 
  32 	 	 638 	 	 486 	 	 8 	 	 275 	 	 357 	 	 51 
  33 	 	 324 	 	 984 	 	 6 	 	 1881 	 	 2013 	 	 56 
  34 	 	 353 	 	 985 	 	 6 	 	 1144 	 	 1336 	 	 69 
  35 	 	 699 	 	 408 	 	 7 	 	 762 	 	 889 	 	 86 
  36 	 	 726 	 	 333 	 	 8 	 	 2307 	 	 2450 	 	 97 
  37 	 	 748 	 	 413 	 	 6 	 	 1135 	 	 1313 	 	 100 
  38 	 	 616 	 	 493 	 	 6 	 	 412 	 	 494 	 	 92 
  39 	 	 711 	 	 549 	 	 8 	 	 1974 	 	 2171 	 	 53 
  40 	 	 569 	 	 559 	 	 6 	 	 1585 	 	 1761 	 	 59 
  41 	 	 673 	 	 470 	 	 6 	 	 614 	 	 782 	 	 54 
  42 	 	 486 	 	 546 	 	 10 	 	 2454 	 	 2588 	 	 92 
  43 	 	 632 	 	 594 	 	 6 	 	 1733 	 	 1859 	 	 87 
  44 	 	 671 	 	 502 	 	 10 	 	 2380 	 	 2462 	 	 71 
  45 	 	 709 	 	 433 	 	 9 	 	 2318 	 	 2388 	 	 83 
  46 	 	 556 	 	 598 	 	 7 	 	 2361 	 	 2510 	 	 89 
  47 	 	 632 	 	 550 	 	 6 	 	 1880 	 	 2062 	 	 72 
  48 	 	 925 	 	 315 	 	 7 	 	 355 	 	 509 	 	 95 
  49 	 	 516 	 	 588 	 	 9 	 	 1985 	 	 2108 	 	 93 
  50 	 	 253 	 	 928 	 	 10 	 	 1650 	 	 1825 	 	 80 
 